
Gurobi 9.5.0 (win64) logging started Tue Dec  7 01:37:32 2021

Set parameter LogFile to value "../results/logs/log_2021_12_07_01_36.csv_21_6.log"
Set parameter Method to value 3
Gurobi Optimizer version 9.5.0 build v9.5.0rc5 (win64)
Thread count: 6 physical cores, 12 logical processors, using up to 12 threads
Optimize a model with 4659 rows, 8078 columns and 342437 nonzeros
Model fingerprint: 0x94126169
Variable types: 4039 continuous, 4039 integer (4039 binary)
Coefficient statistics:
  Matrix range     [1e+00, 2e+01]
  Objective range  [1e+00, 1e+00]
  Bounds range     [1e+00, 1e+00]
  RHS range        [1e+00, 6e+00]
Found heuristic solution: objective 1798.0000000
Presolve removed 4009 rows and 7068 columns
Presolve time: 0.08s
Presolved: 650 rows, 1010 columns, 10816 nonzeros
Found heuristic solution: objective 1803.0000000
Variable types: 659 continuous, 351 integer (350 binary)

Concurrent LP optimizer: primal simplex, dual simplex, and barrier
Showing barrier log only...

Root barrier log...

Ordering time: 0.00s

Barrier statistics:
 AA' NZ     : 8.926e+03
 Factor NZ  : 1.586e+04 (roughly 1 MB of memory)
 Factor Ops : 5.057e+05 (less than 1 second per iteration)
 Threads    : 1

Barrier performed 0 iterations in 0.12 seconds (0.10 work units)
Barrier solve interrupted - model solved by another algorithm


Solved with dual simplex

Root relaxation: objective 2.046362e+03, 274 iterations, 0.02 seconds (0.01 work units)

    Nodes    |    Current Node    |     Objective Bounds      |     Work
 Expl Unexpl |  Obj  Depth IntInf | Incumbent    BestBd   Gap | It/Node Time

     0     0 2046.36207    0  216 1803.00000 2046.36207  13.5%     -    0s
H    0     0                    1805.0000000 2046.36207  13.4%     -    0s
     0     0 1911.89224    0  152 1805.00000 1911.89224  5.92%     -    0s
     0     0 1907.46998    0  173 1805.00000 1907.46998  5.68%     -    0s
     0     0 1906.71556    0  206 1805.00000 1906.71556  5.64%     -    0s
     0     0 1906.56513    0  199 1805.00000 1906.56513  5.63%     -    0s
     0     0 1906.50759    0  202 1805.00000 1906.50759  5.62%     -    0s
     0     0 1882.08599    0  184 1805.00000 1882.08599  4.27%     -    0s
     0     0 1878.96748    0  191 1805.00000 1878.96748  4.10%     -    0s
     0     0 1878.39748    0  195 1805.00000 1878.39748  4.07%     -    0s
     0     0 1878.10202    0  190 1805.00000 1878.10202  4.05%     -    0s
     0     0 1877.98030    0  191 1805.00000 1877.98030  4.04%     -    0s
     0     0 1872.57898    0  185 1805.00000 1872.57898  3.74%     -    0s
     0     0 1870.55293    0  180 1805.00000 1870.55293  3.63%     -    0s
H    0     0                    1817.0000000 1869.34756  2.88%     -    0s
     0     0 1869.34756    0  180 1817.00000 1869.34756  2.88%     -    0s
     0     0 1868.89920    0  215 1817.00000 1868.89920  2.86%     -    0s
     0     0 1868.73034    0  212 1817.00000 1868.73034  2.85%     -    0s
     0     0 1867.11474    0  164 1817.00000 1867.11474  2.76%     -    0s
H    0     0                    1818.0000000 1867.11474  2.70%     -    0s
     0     0 1866.59161    0  164 1818.00000 1866.59161  2.67%     -    0s
     0     0 1866.31067    0  161 1818.00000 1866.31067  2.66%     -    0s
     0     0 1866.18125    0  165 1818.00000 1866.18125  2.65%     -    0s
     0     0 1865.37187    0  183 1818.00000 1865.37187  2.61%     -    0s
H    0     0                    1820.0000000 1865.37187  2.49%     -    0s
     0     0 1865.37187    0  183 1820.00000 1865.37187  2.49%     -    0s
     0     2 1865.37187    0  183 1820.00000 1865.37187  2.49%     -    0s
H  117   120                    1821.0000000 1863.57736  2.34%  62.5    1s
H  121   120                    1823.0000000 1863.57736  2.23%  62.1    1s
H  171   156                    1824.0000000 1863.57736  2.17%  55.1    1s
H  273   228                    1829.0000000 1863.57736  1.89%  48.0    1s
* 1238   645             114    1834.0000000 1856.23186  1.21%  42.7    2s
H 1434   585                    1836.0000000 1855.72075  1.07%  45.5    4s
  1517   598 1849.73719   30  203 1836.00000 1853.39055  0.95%  45.4    5s
H 1519   566                    1837.0000000 1853.39055  0.89%  45.4    5s
H 1787   479                    1841.0000000 1853.19720  0.66%  45.8    5s

Cutting planes:
  Gomory: 44
  Implied bound: 1
  MIR: 290
  Flow cover: 368
  RLT: 111
  Relax-and-lift: 30

Explored 2224 nodes (104877 simplex iterations) in 7.65 seconds (8.25 work units)
Thread count was 12 (of 12 available processors)

Solution count 10: 1841 1837 1836 ... 1818

Optimal solution found (tolerance 1.00e-04)
Best objective 1.841000000000e+03, best bound 1.841000000000e+03, gap 0.0000%
